dates = {'2022-03-16','2022-03-17','2022-03-18','2022-03-19','2022-03-20','2022-03-21','2022-03-22','2022-03-23','2022-03-24','2022-03-25','2022-03-26','2022-03-27','2022-03-28','2022-03-29','2022-03-30','2022-03-31','2022-04-01','2022-04-02','2022-04-03','2022-04-04','2022-04-05','2022-04-06','2022-04-07','2022-04-08','2022-04-09','2022-04-10','2022-04-11','2022-04-12','2022-04-13','2022-04-14','2022-04-15','2022-04-16','2022-04-17','2022-04-18'};

daysOfWeek = [Wednesday,Thursday,Friday,Saturday,Sunday,Monday,Tuesday,Wednesday,Thursday,Friday,Saturday,Sunday,Monday,Tuesday,Wednesday,Thursday,Friday,Saturday,Sunday,Monday,Tuesday,Wednesday,Thursday,Friday,Saturday,Sunday,Monday,Tuesday,Wednesday,Thursday,Friday,Saturday,Sunday,Monday];

winter = false;

% For this week, how many people will be here.
numPeople = [98,89,89,89,89,89,89,89,89,89,89,89,89,89,89,89,89,89,89,89,89,89,89,89
,89,89,89,89,89,89,89,89,89,89];

% Physical workers need 50 to 100 % more nutrients per day.
numPhysicalWorkers = [28.0,28.0,21.0,21.0,21.0,21.0,21.0,21.0,21.0,21.0,21.0,21.0,21.0,21.0,21.0,21.0,21.0,21.0
,21.0,21.0,21.0,21.0,21.0,21.0,21.0,21.0,21.0,21.0,21.0,21.0,21.0,21.0,21.0,21.0];

% Males need +25% more nutrients per day.
numMen = [80,80,75,75,75,75,75,75,75,75,75,75,75,75,75,75,75,75,75,75,75,75,75,75
,75,75,75,75,75,75,75,75,75,75];

% Num people who do not eat categories. contains = {none, meat, milk, gluten, egg, nut, seed, sugars}
numRefusals = [| 0,3,1,0,8,0,1,3 | 0,9,3,0,0,0,0,4 | 0,9,3,0,0,0,0,4 | 0,9,3,0,0,0,0,4 | 0,9,3,0,0,0,0,4 | 0,9,3,0,0,0,0,4 | 0,9,3,0,0,0,0,4 | 0,9,3,0,0,0,0,4 | 0,9,3,0,0,0,0,4 | 0,9,3,0,0,0,0,4 | 0,9,3,0,0,0,0,4 | 0,9,3,0,0,0,0,4 | 0,9,3,0,0,0,0,4 | 0,9,3,0,0,0,0,4 | 0,9,3,0,0,0,0,4 | 0,9,3,0,0,0,0,4 | 0,9,3,0,0,0,0,4 | 0,9,3,0,0,0,0,4 | 0,9,3,0,0,0,0,4 | 0,9,3,0,0,0,0,4 | 0,9,3,0,0,0,0,4 | 0,9,3,0,0,0,0,4 | 0,9,3,0,0,0,0,4 | 0,9,3,0,0,0,0,4 | 0,9,3,0,0,0,0,4 | 0,9,3,0,0,0,0,4 | 0,9,3,0,0,0,0,4 | 0,9,3,0,0,0,0,4 | 0,9,3,0,0,0,0,4 | 0,9,3,0,0,0,0,4 | 0,9,3,0,0,0,0,4 | 0,9,3,0,0,0,0,4 | 0,9,3,0,0,0,0,4 | 0,9,3,0,0,0,0,4 |];

